sat
(:added-eqs               259
 :arith-eq-adapter        125
 :arith-conflicts         1
 :arith-diseq             41
 :arith-fixed-eqs         22
 :arith-gcd-calls         1
 :arith-gcd-conflict      1
 :arith-grobner-calls     1
 :arith-lower             95
 :arith-make-feasible     32
 :arith-max-columns       76
 :arith-max-rows          14
 :arith-nla-add-bounds    1
 :arith-nla-propagate-eq  12
 :arith-nra-calls         1
 :arith-upper             163
 :binary-propagations     239
 :card2bv-rewrites        85
 :conflicts               1
 :decisions               34
 :del-clause              42
 :final-checks            3
 :max-memory              139.09
 :memory                  85.59
 :mk-bool-var             429
 :mk-clause               95
 :mk-clause-binary        219
 :nlsat-conflicts         75
 :nlsat-propagations      1129
 :nlsat-restarts          2
 :nlsat-stages            317
 :num-allocs              720937626
 :num-checks              1
 :propagations            243
 :rlimit-count            2313378
 :sat-backjumps           501
 :sat-conflicts           501
 :sat-decisions           2190
 :sat-del-clause          42827
 :sat-elim-bool-vars-res  8086
 :sat-elim-clauses        2185
 :sat-elim-literals       1796
 :sat-minimized-lits      2730
 :sat-mk-clause-2ary      32293
 :sat-mk-clause-3ary      10468
 :sat-mk-clause-nary      70144
 :sat-mk-var              18708
 :sat-probing-assigned    505
 :sat-propagations-2ary   556312
 :sat-propagations-nary   638724
 :sat-restarts            73
 :sat-scc-elim-binary     101
 :sat-scc-elim-vars       2
 :sat-subs-resolution     328
 :sat-subs-resolution-dyn 373
 :sat-subsumed            8797
 :sat-units               870
 :time                    1.34
 :total-time              1.37)
